(set-info :source  loris-7.ddns.comp.nus.edu.sg/~project/hip/) 
;Variables declarations
(declare-fun n_3717 () Int)
(declare-fun n_3708 () Int)
(declare-fun n1_3703 () Int)
(declare-fun n2_3706 () Int)
(declare-fun n_3699 () Int)
(declare-fun Anon_3645 () Int)
(declare-fun flted_33_3961 () Int)
(declare-fun ln () Int)
(declare-fun n_3641 () Int)
(declare-fun n_3631 () Int)
(declare-fun n_3651 () Int)
(declare-fun n_3367 () Int)
(declare-fun n1_3371 () Int)
(declare-fun n2_3374 () Int)
(declare-fun n () Int)
;Relations declarations
;Axioms assertions
;Antecedent
(assert (< n_3717 n_3708))
(assert (<= 0 n_3717))
(assert (<= 0 n_3708))
(assert (<= 0 n1_3703))
(assert (= n_3717 n1_3703))
(assert (<= 0 n2_3706))
(assert (= n_3708 n2_3706))
(assert (<= 0 Anon_3645))
(assert (<= 0 flted_33_3961))
(assert (<= (+ 0 n2_3706) (+ n1_3703 1)))
(assert (<= n1_3703 (+ 1 n2_3706)))
(assert (exists ((max_3974 Int)) (and (= n_3641 (+ 1 max_3974)) (or (and (= max_3974 n1_3703) (>= n1_3703 n2_3706)) (and (= max_3974 n2_3706) (< n1_3703 n2_3706))))))
(assert (= n_3699 n_3641))
(assert (= n_3641 Anon_3645))
(assert (<= 0 n_3641))
(assert (<= 0 ln))
(assert (= flted_33_3961 (+ ln 2)))
(assert (<= 0 n_3651))
(assert (= ln n_3651))
(assert (= (+ 2 n_3651) n_3641))
(assert (<= 0 n_3631))
(assert (<= (+ 0 n2_3374) (+ n1_3371 1)))
(assert (<= n1_3371 (+ 1 n2_3374)))
(assert (= n_3631 n2_3374))
(assert (<= 0 n2_3374))
(assert (= n_3651 n1_3371))
(assert (<= 0 n1_3371))
(assert (= n_3367 n))
(assert (exists ((max_3975 Int)) (and (= n (+ 1 max_3975)) (or (and (= max_3975 n1_3371) (>= n1_3371 n2_3374)) (and (= max_3975 n2_3374) (< n1_3371 n2_3374))))))
;Negation of Consequence
(assert (not (<= 0 n)))
(check-sat)